CSW07
Position Depot: Random
Horizon for Depot: Small
Position of customers: Cluster
Distribution of the demand: Medium
Width of time windows: Wide
Distribution of the service: Small

VEHICLE 
NUMBER 	 CAPACITY 
 16 	 	 103 
 
CUSTOMER
CUST NO. 	 XCOORD.  	 YCOORD. 	 DEMAND 	 READY TIME 	 DUE DATE 	 SERVICE TIME 
 0 	 	 926 	 	 8 	 	 0 	 	 0 	 	 2097 	 	 0 
  1 	 	 133 	 	 425 	 	 5 	 	 735 	 	 1157 	 	 96 
  2 	 	 700 	 	 621 	 	 6 	 	 764 	 	 1020 	 	 53 
  3 	 	 779 	 	 597 	 	 7 	 	 447 	 	 667 	 	 78 
  4 	 	 230 	 	 686 	 	 4 	 	 830 	 	 1068 	 	 52 
  5 	 	 727 	 	 647 	 	 53 	 	 1307 	 	 1569 	 	 76 
  6 	 	 753 	 	 602 	 	 3 	 	 489 	 	 967 	 	 58 
  7 	 	 719 	 	 807 	 	 3 	 	 1147 	 	 1551 	 	 68 
  8 	 	 857 	 	 638 	 	 3 	 	 1182 	 	 1574 	 	 50 
  9 	 	 656 	 	 640 	 	 55 	 	 579 	 	 868 	 	 52 
  10 	 	 795 	 	 574 	 	 6 	 	 811 	 	 1247 	 	 63 
  11 	 	 89 	 	 434 	 	 6 	 	 1676 	 	 2097 	 	 71 
  12 	 	 180 	 	 453 	 	 5 	 	 615 	 	 955 	 	 69 
  13 	 	 699 	 	 618 	 	 7 	 	 392 	 	 715 	 	 98 
  14 	 	 780 	 	 661 	 	 7 	 	 1116 	 	 1578 	 	 70 
  15 	 	 655 	 	 653 	 	 9 	 	 670 	 	 921 	 	 96 
  16 	 	 821 	 	 578 	 	 1 	 	 1475 	 	 1696 	 	 76 
  17 	 	 995 	 	 614 	 	 10 	 	 204 	 	 670 	 	 73 
  18 	 	 135 	 	 428 	 	 94 	 	 659 	 	 985 	 	 91 
  19 	 	 687 	 	 595 	 	 2 	 	 988 	 	 1316 	 	 82 
  20 	 	 658 	 	 620 	 	 10 	 	 1175 	 	 1610 	 	 89 
  21 	 	 250 	 	 715 	 	 2 	 	 753 	 	 1075 	 	 99 
  22 	 	 855 	 	 454 	 	 2 	 	 163 	 	 496 	 	 86 
  23 	 	 205 	 	 758 	 	 84 	 	 1050 	 	 1545 	 	 73 
  24 	 	 758 	 	 577 	 	 2 	 	 1275 	 	 1538 	 	 95 
  25 	 	 164 	 	 411 	 	 7 	 	 803 	 	 1044 	 	 51 
  26 	 	 355 	 	 809 	 	 69 	 	 605 	 	 1082 	 	 70 
  27 	 	 777 	 	 684 	 	 1 	 	 938 	 	 1426 	 	 62 
  28 	 	 688 	 	 747 	 	 67 	 	 1187 	 	 1426 	 	 69 
  29 	 	 265 	 	 768 	 	 2 	 	 849 	 	 1107 	 	 79 
  30 	 	 780 	 	 651 	 	 7 	 	 1521 	 	 1993 	 	 75 
  31 	 	 154 	 	 233 	 	 2 	 	 994 	 	 1420 	 	 70 
  32 	 	 770 	 	 537 	 	 50 	 	 982 	 	 1256 	 	 90 
  33 	 	 819 	 	 728 	 	 60 	 	 1020 	 	 1388 	 	 60 
  34 	 	 121 	 	 779 	 	 3 	 	 814 	 	 1226 	 	 51 
  35 	 	 257 	 	 635 	 	 8 	 	 1161 	 	 1609 	 	 73 
  36 	 	 237 	 	 689 	 	 9 	 	 1455 	 	 1739 	 	 82 
  37 	 	 731 	 	 557 	 	 5 	 	 1440 	 	 1782 	 	 73 
  38 	 	 585 	 	 625 	 	 2 	 	 1163 	 	 1415 	 	 87 
  39 	 	 778 	 	 555 	 	 10 	 	 988 	 	 1328 	 	 68 
  40 	 	 661 	 	 562 	 	 10 	 	 340 	 	 792 	 	 87 
  41 	 	 880 	 	 674 	 	 2 	 	 505 	 	 851 	 	 87 
  42 	 	 666 	 	 663 	 	 4 	 	 442 	 	 775 	 	 98 
  43 	 	 273 	 	 620 	 	 7 	 	 498 	 	 984 	 	 66 
  44 	 	 217 	 	 500 	 	 6 	 	 993 	 	 1246 	 	 81 
  45 	 	 370 	 	 736 	 	 1 	 	 595 	 	 1007 	 	 79 
  46 	 	 264 	 	 688 	 	 8 	 	 722 	 	 1043 	 	 52 
  47 	 	 674 	 	 602 	 	 5 	 	 1246 	 	 1711 	 	 96 
  48 	 	 683 	 	 513 	 	 8 	 	 318 	 	 737 	 	 61 
  49 	 	 699 	 	 666 	 	 10 	 	 516 	 	 765 	 	 81 
  50 	 	 884 	 	 664 	 	 7 	 	 681 	 	 946 	 	 65 
 